p cnf 12 50 
8 12 -10 0
-4 10 -9 0
7 -8 -10 0
9 8 6 0
-4 -5 2 0
11 -8 -2 0
-3 -1 8 0
-7 -2 -6 0
-5 12 9 0
1 -4 11 0
-6 10 1 0
11 -7 8 0
-2 1 -10 0
4 5 10 0
6 2 3 0
-9 3 2 0
10 -5 -4 0
8 11 -10 0
-5 -11 -12 0
-11 -4 -9 0
10 -6 -5 0
8 -9 7 0
6 4 8 0
-2 -10 9 0
-1 9 -8 0
-7 11 -2 0
7 -8 4 0
8 12 -2 0
4 -5 -6 0
-11 8 -6 0
-4 6 -3 0
6 4 -2 0
10 -5 -3 0
-11 5 2 0
2 -12 -8 0
4 10 1 0
9 5 -3 0
6 8 -1 0
-3 -7 -6 0
3 10 7 0
-10 8 -7 0
8 -3 -1 0
-11 6 -3 0
9 11 6 0
-12 11 6 0
10 7 -4 0
-2 9 11 0
-8 1 7 0
-5 12 1 0
12 -8 -5 0
